10
1 0 28
2 0 29
2 1 25
3 0 30
3 1 29
3 2 40
4 0 24
4 1 34
4 2 23
4 3 16
5 0 27
5 1 35
5 2 15
5 3 36
5 4 7
6 0 12
6 1 34
6 2 39
6 3 23
6 4 17
6 5 24
7 0 6
7 1 34
7 2 22
7 3 21
7 4 24
7 5 8
7 6 10
8 0 21
8 1 10
8 2 27
8 3 29
8 4 32
8 5 4
8 6 31
8 7 20
9 0 4
9 1 4
9 2 4
9 3 33
9 4 30
9 5 5
9 6 5
9 7 18
9 8 24
